2025-11-09 21:49:42,516 INFO - Solving the line planning problem with ILP
2025-11-09 21:49:42,517 INFO - Set parameter Username
2025-11-09 21:49:42,517 INFO - Set parameter LicenseID to value 2711114
2025-11-09 21:49:42,518 INFO - Academic license - for non-commercial use only - expires 2026-09-20
2025-11-09 21:49:42,518 INFO - Set parameter TimeLimit to value 86400
2025-11-09 21:49:42,522 INFO - Set parameter LogFile to value "Results\1_percent\budget_30000\original\gurobi.log"
2025-11-09 21:49:42,522 INFO - method: -1
2025-11-09 21:49:42,522 INFO - Gurobi Optimizer version 12.0.3 build v12.0.3rc0 (win64 - Windows 11+.0 (26200.2))
2025-11-09 21:49:42,523 INFO - 
2025-11-09 21:49:42,523 INFO - CPU model: Intel(R) Core(TM) Ultra 7 265K, instruction set [SSE2|AVX|AVX2]
2025-11-09 21:49:42,525 INFO - Thread count: 20 physical cores, 20 logical processors, using up to 20 threads
2025-11-09 21:49:42,525 INFO - 
2025-11-09 21:49:42,525 INFO - Non-default parameters:
2025-11-09 21:49:42,525 INFO - TimeLimit  86400
2025-11-09 21:49:42,525 INFO - 
2025-11-09 21:49:42,525 INFO - Optimize a model with 282 rows, 253 columns and 1552 nonzeros
2025-11-09 21:49:42,525 INFO - Model fingerprint: 0xb6522e1e
2025-11-09 21:49:42,525 INFO - Variable types: 0 continuous, 253 integer (253 binary)
2025-11-09 21:49:42,525 INFO - Coefficient statistics:
2025-11-09 21:49:42,525 INFO -   Matrix range     [1e+00, 2e+03]
2025-11-09 21:49:42,525 INFO -   Objective range  [1e+00, 8e+02]
2025-11-09 21:49:42,525 INFO -   Bounds range     [1e+00, 1e+00]
2025-11-09 21:49:42,525 INFO -   RHS range        [1e+00, 3e+04]
2025-11-09 21:49:42,525 INFO - Found heuristic solution: objective -0.0000000
2025-11-09 21:49:42,526 INFO - Presolve removed 282 rows and 253 columns
2025-11-09 21:49:42,526 INFO - Presolve time: 0.00s
2025-11-09 21:49:42,526 INFO - Presolve: All rows and columns removed
2025-11-09 21:49:42,526 INFO - 
2025-11-09 21:49:42,526 INFO - Explored 0 nodes (0 simplex iterations) in 0.00 seconds (0.00 work units)
2025-11-09 21:49:42,526 INFO - Thread count was 1 (of 20 available processors)
2025-11-09 21:49:42,526 INFO - 
2025-11-09 21:49:42,526 INFO - Solution count 2: 11568 -0 
2025-11-09 21:49:42,526 INFO - 
2025-11-09 21:49:42,526 INFO - Optimal solution found (tolerance 1.00e-04)
2025-11-09 21:49:42,526 INFO - Best objective 1.156800000000e+04, best bound 1.156800000000e+04, gap 0.0000%
2025-11-09 21:49:42,526 INFO - Execution time: 0.004092693328857422
2025-11-09 21:49:42,526 INFO - Final solution: 11568.0
2025-11-09 21:49:42,533 INFO - Exported used lines to Results\1_percent\budget_30000\original\used_lines.csv
2025-11-09 21:49:42,541 INFO - Exported passenger assignments to Results\1_percent\budget_30000\original\passenger_assignments.csv
2025-11-09 21:49:42,542 INFO - Building flow variables
2025-11-09 21:49:42,790 INFO - Building flow conservation constraints
2025-11-09 21:49:43,155 INFO - Gurobi Optimizer version 12.0.3 build v12.0.3rc0 (win64 - Windows 11+.0 (26200.2))
2025-11-09 21:49:43,156 INFO - 
2025-11-09 21:49:43,156 INFO - CPU model: Intel(R) Core(TM) Ultra 7 265K, instruction set [SSE2|AVX|AVX2]
2025-11-09 21:49:43,156 INFO - Thread count: 20 physical cores, 20 logical processors, using up to 20 threads
2025-11-09 21:49:43,157 INFO - 
2025-11-09 21:49:43,157 INFO - Optimize a model with 523 rows, 94249 columns and 188100 nonzeros
2025-11-09 21:49:43,158 INFO - Model fingerprint: 0x6c265b58
2025-11-09 21:49:43,159 INFO - Variable types: 0 continuous, 94249 integer (0 binary)
2025-11-09 21:49:43,159 INFO - Coefficient statistics:
2025-11-09 21:49:43,159 INFO -   Matrix range     [1e+00, 1e+00]
2025-11-09 21:49:43,159 INFO -   Objective range  [1e+00, 1e+03]
2025-11-09 21:49:43,159 INFO -   Bounds range     [0e+00, 0e+00]
2025-11-09 21:49:43,159 INFO -   RHS range        [1e+00, 1e+00]
2025-11-09 21:49:43,164 INFO - Found heuristic solution: objective 266664.00000
2025-11-09 21:49:43,287 INFO - Presolve removed 216 rows and 307 columns
2025-11-09 21:49:43,288 INFO - Presolve time: 0.12s
2025-11-09 21:49:43,289 INFO - Presolved: 307 rows, 93942 columns, 187884 nonzeros
2025-11-09 21:49:43,305 INFO - Variable types: 0 continuous, 93942 integer (0 binary)
2025-11-09 21:49:43,321 INFO - 
2025-11-09 21:49:43,321 INFO - Starting sifting (using dual simplex for sub-problems)...
2025-11-09 21:49:43,321 INFO - 
2025-11-09 21:49:43,321 INFO -     Iter     Pivots    Primal Obj      Dual Obj        Time
2025-11-09 21:49:43,322 INFO -        0          0     infinity      2.3601000e+04      0s
2025-11-09 21:49:43,331 INFO -        1        571   4.7837670e+06   2.5047195e+04      0s
2025-11-09 21:49:43,340 INFO -        2       1097   7.8662300e+05   2.5263808e+04      0s
2025-11-09 21:49:43,350 INFO -        3       1596   2.8774200e+05   2.5234912e+04      0s
2025-11-09 21:49:43,361 INFO -        4       2075   3.8028000e+04   2.7618711e+04      0s
2025-11-09 21:49:43,371 INFO -        5       2542   3.6547000e+04   3.2838256e+04      0s
2025-11-09 21:49:43,374 INFO - 
2025-11-09 21:49:43,374 INFO - Sifting complete
2025-11-09 21:49:43,374 INFO - 
2025-11-09 21:49:43,379 INFO - 
2025-11-09 21:49:43,379 INFO - Root relaxation: objective 3.621900e+04, 2939 iterations, 0.07 seconds (0.10 work units)
2025-11-09 21:49:43,394 INFO - 
2025-11-09 21:49:43,394 INFO -     Nodes    |    Current Node    |     Objective Bounds      |     Work
2025-11-09 21:49:43,394 INFO -  Expl Unexpl |  Obj  Depth IntInf | Incumbent    BestBd   Gap | It/Node Time
2025-11-09 21:49:43,394 INFO - 
2025-11-09 21:49:43,394 INFO - *    0     0               0    36219.000000 36219.0000  0.00%     -    0s
2025-11-09 21:49:43,430 INFO - 
2025-11-09 21:49:43,431 INFO - Explored 1 nodes (2939 simplex iterations) in 0.27 seconds (0.27 work units)
2025-11-09 21:49:43,431 INFO - Thread count was 20 (of 20 available processors)
2025-11-09 21:49:43,431 INFO - 
2025-11-09 21:49:43,431 INFO - Solution count 2: 36219 266664 
2025-11-09 21:49:43,431 INFO - 
2025-11-09 21:49:43,431 INFO - Optimal solution found (tolerance 1.00e-04)
2025-11-09 21:49:43,431 INFO - Best objective 3.621900000000e+04, best bound 3.621900000000e+04, gap 0.0000%
2025-11-09 21:49:43,502 INFO - Exported flows to Results\1_percent\budget_30000\original\flows.csv
